50
100
95
94
93
92
87
81
81
79
78
76
75
72
72
71
70
65
62
61
60
55
54
54
51
49
46
45
38
38
37
36
36
36
32
31
28
27
26
25
24
24
21
20
20
17
14
10
9
7
7
3
